words_hard_train/6736.qaiger
aag 146 16 0 1 130
2
4
8
12
16
20
24
60
70
74
92
112
132
152
172
274
292
6 3 5
10 6 9
14 10 13
18 14 17
22 18 21
26 23 24
28 22 25
30 27 29
32 19 20
34 33 23
36 11 12
38 37 15
40 7 8
42 36 41
44 39 43
46 15 16
48 47 19
50 44 49
52 35 50
54 30 53
56 31 52
58 55 57
62 61 2
64 63 5
66 62 4
68 65 67
72 70 2
76 72 74
78 69 77
80 73 75
82 79 81
84 7 61
86 84 8
88 85 9
90 87 89
94 91 93
96 90 92
98 95 97
100 82 98
102 101 97
104 11 61
106 105 13
108 104 12
110 107 109
114 111 113
116 110 112
118 115 117
120 103 118
122 121 117
124 15 61
126 125 17
128 124 16
130 127 129
134 131 133
136 130 132
138 135 137
140 123 138
142 141 137
144 19 61
146 145 21
148 144 20
150 147 149
154 151 153
156 150 152
158 155 157
160 143 158
162 161 157
164 23 61
166 164 24
168 165 25
170 167 169
174 171 173
176 170 172
178 175 177
180 162 179
182 163 178
184 181 183
186 59 185
188 58 184
190 187 189
192 45 48
194 193 51
196 122 139
198 197 141
200 195 199
202 194 198
204 201 203
206 34 51
208 207 53
210 142 159
212 211 161
214 208 212
216 204 215
218 209 213
220 216 219
222 83 99
224 223 101
226 41 11
228 225 227
230 224 226
232 229 231
234 60 2
236 235 74
238 234 75
240 237 239
242 240 71
244 232 242
246 102 119
248 247 121
250 227 38
252 251 43
254 248 252
256 249 253
258 255 257
260 244 259
262 220 260
264 27 53
266 265 61
268 264 60
270 267 269
272 270 29
276 273 274
278 272 275
280 277 279
282 183 177
284 280 282
286 281 283
288 285 287
290 262 288
292 191 290
i0 1 x1[0]
i1 1 x1[1]
i2 1 x1[2]
i3 1 x1[3]
i4 1 x1[4]
i5 1 x1[5]
i6 1 x1[6]
i7 1 x1[7]
i8 2 y1[0]
i9 2 y1[1]
i10 2 y1[2]
i11 2 y1[3]
i12 2 y1[4]
i13 2 y1[5]
i14 2 y1[6]
i15 2 y1[7]
o0 bool[0]
c
simplified
  ==
    subtract
      -68
      1 x1
    subtract
      2 y1
      abs
        1 x1
