words_hard_train/6736.qaiger.qdimacs
p cnf 146 391
a 1 2 4 6 8 10 12 30 0
e 3 5 7 9 11 13 14 15 16 17 18 19 20 21 22 23 24 25 26 27 28 29 31 32 33 34 35 36 37 38 39 40 41 42 43 44 45 46 47 48 49 50 51 52 53 54 55 56 57 58 59 60 61 62 63 64 65 66 67 68 69 70 71 72 73 74 75 76 77 78 79 80 81 82 83 84 85 86 87 88 89 90 91 92 93 94 95 96 97 98 99 100 101 102 103 104 105 106 107 108 109 110 111 112 113 114 115 116 117 118 119 120 121 122 123 124 125 126 127 128 129 130 131 132 133 134 135 136 137 138 139 140 141 142 143 144 145 146 0
1 2 3 0
-1 -3 0
-2 -3 0
-3 4 5 0
3 -5 0
-4 -5 0
-5 6 7 0
5 -7 0
-6 -7 0
-7 8 9 0
7 -9 0
-8 -9 0
-9 10 11 0
9 -11 0
-10 -11 0
11 -12 13 0
-11 -13 0
12 -13 0
-11 12 14 0
11 -14 0
-12 -14 0
13 14 15 0
-13 -15 0
-14 -15 0
9 -10 16 0
-9 -16 0
10 -16 0
16 11 17 0
-16 -17 0
-11 -17 0
5 -6 18 0
-5 -18 0
6 -18 0
18 7 19 0
-18 -19 0
-7 -19 0
3 -4 20 0
-3 -20 0
4 -20 0
-18 20 21 0
18 -21 0
-20 -21 0
19 21 22 0
-19 -22 0
-21 -22 0
7 -8 23 0
-7 -23 0
8 -23 0
23 9 24 0
-23 -24 0
-9 -24 0
-22 24 25 0
22 -25 0
-24 -25 0
17 -25 26 0
-17 -26 0
25 -26 0
-15 26 27 0
15 -27 0
-26 -27 0
15 -26 28 0
-15 -28 0
26 -28 0
27 28 29 0
-27 -29 0
-28 -29 0
30 -1 31 0
-30 -31 0
1 -31 0
31 2 32 0
-31 -32 0
-2 -32 0
-31 -2 33 0
31 -33 0
2 -33 0
32 33 34 0
-32 -34 0
-33 -34 0
-35 -1 36 0
35 -36 0
1 -36 0
-36 -37 38 0
36 -38 0
37 -38 0
34 38 39 0
-34 -39 0
-38 -39 0
36 37 40 0
-36 -40 0
-37 -40 0
39 40 41 0
-39 -41 0
-40 -41 0
3 30 42 0
-3 -42 0
-30 -42 0
-42 -4 43 0
42 -43 0
4 -43 0
42 4 44 0
-42 -44 0
-4 -44 0
43 44 45 0
-43 -45 0
-44 -45 0
45 46 47 0
-45 -47 0
-46 -47 0
-45 -46 48 0
45 -48 0
46 -48 0
47 48 49 0
-47 -49 0
-48 -49 0
-41 -49 50 0
41 -50 0
49 -50 0
50 48 51 0
-50 -51 0
-48 -51 0
5 30 52 0
-5 -52 0
-30 -52 0
52 6 53 0
-52 -53 0
-6 -53 0
-52 -6 54 0
52 -54 0
6 -54 0
53 54 55 0
-53 -55 0
-54 -55 0
55 56 57 0
-55 -57 0
-56 -57 0
-55 -56 58 0
55 -58 0
56 -58 0
57 58 59 0
-57 -59 0
-58 -59 0
51 -59 60 0
-51 -60 0
59 -60 0
60 58 61 0
-60 -61 0
-58 -61 0
7 30 62 0
-7 -62 0
-30 -62 0
62 8 63 0
-62 -63 0
-8 -63 0
-62 -8 64 0
62 -64 0
8 -64 0
63 64 65 0
-63 -65 0
-64 -65 0
65 66 67 0
-65 -67 0
-66 -67 0
-65 -66 68 0
65 -68 0
66 -68 0
67 68 69 0
-67 -69 0
-68 -69 0
61 -69 70 0
-61 -70 0
69 -70 0
70 68 71 0
-70 -71 0
-68 -71 0
9 30 72 0
-9 -72 0
-30 -72 0
72 10 73 0
-72 -73 0
-10 -73 0
-72 -10 74 0
72 -74 0
10 -74 0
73 74 75 0
-73 -75 0
-74 -75 0
75 76 77 0
-75 -77 0
-76 -77 0
-75 -76 78 0
75 -78 0
76 -78 0
77 78 79 0
-77 -79 0
-78 -79 0
71 -79 80 0
-71 -80 0
79 -80 0
80 78 81 0
-80 -81 0
-78 -81 0
11 30 82 0
-11 -82 0
-30 -82 0
-82 -12 83 0
82 -83 0
12 -83 0
82 12 84 0
-82 -84 0
-12 -84 0
83 84 85 0
-83 -85 0
-84 -85 0
85 86 87 0
-85 -87 0
-86 -87 0
-85 -86 88 0
85 -88 0
86 -88 0
87 88 89 0
-87 -89 0
-88 -89 0
-81 89 90 0
81 -90 0
-89 -90 0
81 -89 91 0
-81 -91 0
89 -91 0
90 91 92 0
-90 -92 0
-91 -92 0
29 92 93 0
-29 -93 0
-92 -93 0
-29 -92 94 0
29 -94 0
92 -94 0
93 94 95 0
-93 -95 0
-94 -95 0
22 -24 96 0
-22 -96 0
24 -96 0
96 25 97 0
-96 -97 0
-25 -97 0
-61 69 98 0
61 -98 0
-69 -98 0
98 70 99 0
-98 -99 0
-70 -99 0
97 99 100 0
-97 -100 0
-99 -100 0
-97 -99 101 0
97 -101 0
99 -101 0
100 101 102 0
-100 -102 0
-101 -102 0
-17 25 103 0
17 -103 0
-25 -103 0
103 26 104 0
-103 -104 0
-26 -104 0
-71 79 105 0
71 -105 0
-79 -105 0
105 80 106 0
-105 -106 0
-80 -106 0
-104 -106 107 0
104 -107 0
106 -107 0
-102 107 108 0
102 -108 0
-107 -108 0
104 106 109 0
-104 -109 0
-106 -109 0
-108 109 110 0
108 -110 0
-109 -110 0
41 49 111 0
-41 -111 0
-49 -111 0
111 50 112 0
-111 -112 0
-50 -112 0
20 5 113 0
-20 -113 0
-5 -113 0
112 113 114 0
-112 -114 0
-113 -114 0
-112 -113 115 0
112 -115 0
113 -115 0
114 115 116 0
-114 -116 0
-115 -116 0
-30 -1 117 0
30 -117 0
1 -117 0
117 -37 118 0
-117 -118 0
37 -118 0
-117 37 119 0
117 -119 0
-37 -119 0
118 119 120 0
-118 -120 0
-119 -120 0
-120 35 121 0
120 -121 0
-35 -121 0
-116 -121 122 0
116 -122 0
121 -122 0
-51 59 123 0
51 -123 0
-59 -123 0
123 60 124 0
-123 -124 0
-60 -124 0
113 -19 125 0
-113 -125 0
19 -125 0
125 21 126 0
-125 -126 0
-21 -126 0
-124 -126 127 0
124 -127 0
126 -127 0
124 126 128 0
-124 -128 0
-126 -128 0
127 128 129 0
-127 -129 0
-128 -129 0
-122 129 130 0
122 -130 0
-129 -130 0
-110 -130 131 0
110 -131 0
130 -131 0
13 26 132 0
-13 -132 0
-26 -132 0
132 30 133 0
-132 -133 0
-30 -133 0
-132 -30 134 0
132 -134 0
30 -134 0
133 134 135 0
-133 -135 0
-134 -135 0
-135 14 136 0
135 -136 0
-14 -136 0
136 -137 138 0
-136 -138 0
137 -138 0
-136 137 139 0
136 -139 0
-137 -139 0
138 139 140 0
-138 -140 0
-139 -140 0
91 88 141 0
-91 -141 0
-88 -141 0
-140 -141 142 0
140 -142 0
141 -142 0
140 141 143 0
-140 -143 0
-141 -143 0
142 143 144 0
-142 -144 0
-143 -144 0
-131 -144 145 0
131 -145 0
144 -145 0
95 -145 146 0
-95 -146 0
145 -146 0
146 0
